NAME : lrc203.1089068.tour
COMMENT : Cost = 0_1089068
COMMENT : Found by LKH [Keld Helsgaun] Fri Sep 15 17:42:02 2017
TYPE : TOUR
DIMENSION : 105
TOUR_SECTION
1
70
65
19
49
22
24
58
100
53
87
88
10
54
79
80
74
15
13
11
17
48
18
14
75
60
98
76
59
78
26
25
84
104
82
55
40
37
43
46
8
61
16
12
89
62
45
41
39
42
3
7
9
47
5
102
6
4
2
44
36
38
73
72
94
95
97
81
105
91
66
92
93
103
96
51
34
33
35
32
30
28
27
29
31
63
68
86
64
90
77
20
50
23
21
52
85
57
67
83
99
56
69
71
101
-1
EOF
